NAME : random17.399.tour
COMMENT : Length = 399
COMMENT : Found by LKH [Keld Helsgaun] Thu Sep 26 21:56:17 2024
TYPE : TOUR
DIMENSION : 17
TOUR_SECTION
1
10
15
6
17
13
2
14
5
8
16
12
7
3
4
9
11
-1
EOF
